COMMENT : 101-city problem (Christofides/Eilon)
41 35 55 55 15 25 20 10 55 30 20 50 30 15 30 10 5 20 15 45 45 45 55 65 65 45 35 41 64 40 31 35 53 65 63 2 20 5 60 40 42 24 23 11 6 2 8 13 6 47 49 27 37 57 63 53 32 36 21 17 12 24 27 15 62 49 67 56 37 37 57 47 44 46 49 49 53 61 57 56 55 15 14 11 16 4 28 26 26 31 15 22 18 26 25 22 25 19 20 18 35
49 17 45 20 30 30 50 43 60 60 65 35 25 10 5 20 30 40 60 65 20 10 5 35 20 30 40 37 42 60 52 69 52 55 65 60 20 5 12 25 7 12 3 14 38 48 56 52 68 47 58 43 31 29 23 12 12 26 24 34 24 58 69 77 77 73 5 39 47 56 68 16 17 13 11 42 43 52 48 37 54 47 37 31 22 18 18 52 35 67 19 22 24 27 24 27 21 21 26 18 35
3079.26 3079.26 3079.26 3079.09 3050.89 3050.89 3050.89 3050.89 3050.89 3050.89 3050.89 3050.89 3050.89 3050.89 3050.89 3050.89 3050.89 3050.89 3050.89 3017.89 3017.89 3017.89 3017.89 3017.89 3017.89 3017.89 2996.28 2996.28 2996.28 2996.28 2996.28 2996.28 2988.24 2988.24 2988.24 2988.24 2988.24 2988.24 2988.24 2988.24 2924.12 2924.12 2924.12 2924.12 2924.12 2924.12 2924.12 2924.12 2924.12 2924.12 2924.12 2924.12 2924.12 2924.12 2924.12 2924.12 2924.12 2924.12 2924.12 2924.12 2924.12 2924.12 2924.12 2924.12 2924.12 2924.12 2924.12 2924.12 2924.12 2924.12 2924.12 2924.12 2924.12 2924.12 2924.12 2924.12 2920.15 2920.15 2920.15 2920.15 2920.15 2920.15 2920.15 2920.15 2856.56 2856.56 2856.56 2856.56 2856.56 2856.56 2856.56 2856.56 2856.56 2856.56 2856.56 2856.56 2856.56 2856.56 2856.56 2856.56 2856.56 2856.56 2856.56 2856.56 2856.56 2856.56 2856.56 2856.56 2856.56 2856.56 2856.56 2856.56 2856.56 2856.56 2856.56 2856.56 2856.56 2856.56 2856.56 2856.56 2856.56 2856.56 2856.56 2856.56 2856.56 2856.56 2829.37 2829.37 2829.37 2829.37 2829.37 2829.37 2829.37 2829.37 2829.37 2829.37 2829.37 2829.37 2829.37 2829.37 2829.37 2829.37 2829.37 2829.37 2829.37 2829.37 2829.37 2829.37 2829.37 2829.37 2829.37 2829.37 2829.37 2829.37 2829.37 2829.37 2816.05 2816.05 2796.39 2796.39 2796.39 2796.39 2796.39 2796.39 2796.39 2796.39 2796.39 2796.39 2796.39 2796.39 2796.39 2796.39 2796.39 2796.39 2796.39 2796.39 2796.39 2796.39 2796.39 2796.39 2796.39 2796.39 2796.39 2796.39 2796.39 2796.39 2796.39 2796.39 2796.39 2796.39 2796.39 2796.39 2796.39 2725.72 2725.72 2725.72 2725.72 2725.72 2725.72 2725.72 2725.72 2725.72 2722.82 2722.82 2722.82 2722.82 2702.35 2702.35 2702.35 2702.35 2702.35 2702.35 2702.35 2702.35 2702.35 2702.35 2702.35 2702.35 2702.35 2702.35 2702.35 2702.35 2702.35 2702.35 2702.35 2702.35 2702.35 2702.35 2702.35 2702.35 2702.35 2702.35 2702.35 2702.35 2702.35 2702.35 2702.35 2702.35 2702.35 2702.35 2702.35 2702.35 2702.35 2702.35 2702.35 2702.35 2702.35 2702.35 2702.35 2702.35 2702.35 2702.35 2700.1 2700.1 2700.1 2700.1 2700.1 2700.1 2647.82 2647.82 2647.82 2647.82 2647.82 2597.95 2597.95 2597.95 2597.95 2597.95 2597.95 2597.95 2597.95 2597.95 2597.95 2597.95 2597.95 2597.95 2597.95 2597.95 2597.95 2597.95 2597.95 2597.95 2597.95 2597.95 2597.95 2597.95 2597.95 2597.95 2597.95 2597.95 2597.95 2597.95 2597.95 2597.95 2597.95 2597.95 2597.95 2597.95 2597.95 2594.36 2594.36 2594.36 2594.36 2576.95 2576.95 2576.95 2576.95 2576.95 2576.95 2576.95 2576.95 2576.95 2576.95 2576.95 2576.95 2576.95 2576.95 2576.95 2576.95 2576.95 2576.95 2576.95 2576.95 2576.95 2576.95 2576.95 2576.95 2576.95 2576.95 2576.95 2576.95 2576.95 2576.95 2573.12 2573.12 2573.12 2573.12 2573.12 2573.12 2573.12 2573.12 2573.12 2573.12 2573.12 2573.12 2573.12 2573.12 2573.12 2573.12 2573.12 2529.73 2529.73 2529.73 2529.73 2479.33 2479.33 2479.33 2479.33 2479.33 2479.33 2479.33 2479.33 2479.33 2479.33 2479.33 2479.33 2479.33 2479.33 2479.33 2479.33 2479.33 2479.33 2479.33 2479.33 2479.33 2479.33 2479.33 2479.33 2479.33 2479.33 2479.33 2479.33 2479.33 2479.33 2479.33 2479.33 2479.33 2479.33 2479.33 2479.33 2479.33 2479.33 2479.33 2479.33 2479.33 2471.66 2471.66 2467.5 2467.5 2448.27 2448.27 2448.27 2448.27 2379.58 2379.58 2379.58 2379.58 2379.58 2379.58 2379.58 2379.58 2364.6 2364.6 2364.6 2364.6 2364.6 2364.6 2364.6 2364.6 2364.6 2364.6 2364.6 2364.6 2364.6 2364.6 2364.6 2364.6 2364.6 2364.6 2364.6 2364.6 2364.6 2364.6 2364.6 2364.6 2364.6 2364.6 2364.6 2364.6 2364.6 2364.6 2364.6 2364.6 2364.6 2364.6 2364.6 2364.6 2364.6 2364.6 2364.6 2364.6 2364.6 2364.6 2364.6 2364.6 2364.6 2364.6 2364.6 2364.6 2364.6 2364.6 2364.6 2364.6 2364.6 2364.6 2364.6 2364.6 2364.6 2364.6 2364.6 2364.6 2364.6 2364.6 2364.6 2364.6 2364.6 2364.6 2364.6 2363.94 2363.94 2351.52 2351.52 2351.52 2351.52 2351.52 2351.52 2351.52 2351.52 2351.52 2351.52 2351.52 2351.52 2351.52 2351.52 2351.52 2351.52 2351.52 2351.52 2351.52 2351.52 2351.52 2351.52 2351.52 2351.52 2351.52 2351.52 2351.52 2351.52 2351.52 2351.52 2351.52 2351.52 2351.52 2323.98 2323.11 2323.11 2323.11 2323.11 2323.11 2323.11 2323.11 2323.11 2323.11 2323.11 2317.49 2317.49 2317.49 2317.49 2317.49 2317.49 2317.49 2236.43 2236.43 2236.43 2236.43 2236.43 2236.43 2236.43 2236.43 2236.43 2236.43 2236.43 2236.43 2236.43 2236.43 2236.43 2236.43 2236.43 2236.43 2236.43 2236.43 2236.43 2236.43 2236.43 2236.43 2236.43 2236.43 2236.43 2236.43 2236.43 2236.43 2236.43 2236.43 2236.43 2236.43 2236.43 2236.43 2236.43 2236.43 2236.43 2236.43 2236.43 2236.43 2236.43 2236.43 2236.43 2236.43 2236.43 2236.43 2236.43 2236.43 2236.43 2236.43 2236.43 2185.83 2185.83 2185.83 2185.83 2185.83 2185.83 2185.83 2185.83 2185.83 2185.83 2185.83 2185.83 2185.83 2185.83 2185.83 2185.83 2185.83 2185.83 2185.83 2185.83 2185.83 2185.83 2185.83 2185.83 2165.09 2165.09 2165.09 2165.09 2165.09 2165.09 2165.09 2165.09 2165.09 2165.09 2165.09 2165.09 2165.09 2165.09 2165.09 2165.09 2165.09 2165.09 2165.09 2165.09 2165.09 2165.09 2165.09 2165.09 2165.09 2165.09 2165.09 2165.09 2165.09 2165.09 2158.28 2139.56 2139.56 2139.56 2139.56 2139.56 2139.56 2116.99 2116.99 2116.99 2116.99 2075.75 2075.75 2075.75 2075.75 2075.75 2075.75 2075.75 2075.75 2075.75 2070.99 2070.99 2070.99 2070.99 2070.99 2070.99 2070.99 2070.99 2070.99 2022.75 2022.75 2022.75 2022.75 2022.75 2022.75 2022.75 2022.75 2022.75 2022.75 2022.75 2022.75 2022.75 2022.75 2022.75 2022.75 2022.75 2022.75 2022.75 2022.75 2022.75 2022.75 2022.75 2022.75 2022.75 2022.75 2022.75 2022.75 2022.75 2022.75 2022.75 2022.75 2022.75 2022.75 2022.75 2022.75 2022.75 2022.75 2022.75 2022.75 2022.75 2022.75 2022.75 2008.72 2008.72 2008.72 2008.72 2008.72 2008.72 2008.72 2008.72 2008.72 2008.72 2008.72 2008.72 2008.72 1983.76 1983.76 1983.76 1983.76 1983.76 1983.76 1983.76 1983.76 1983.76 1983.76 1983.76 1983.76 1983.76 1983.76 1983.76 1983.76 1983.76 1983.76 1983.76 1983.76 1983.76 1983.76 1983.76 1983.76 1983.76 1983.76 1970.82 1970.82 1970.82 1970.82 1970.82 1970.82 1970.82 1970.82 1970.82 1970.82 1970.82 1970.82 1970.82 1970.82 1970.82 1970.82 1970.82 1970.82 1970.82 1970.82 1970.82 1970.82 1970.82 1970.82 1970.82 1970.82 1970.82 1970.82 1970.82 1970.82 1970.82 1946.28 1946.28 1946.28 1946.28 1946.28 1946.28 1946.28 1946.28 1946.28 1946.28 1946.28 1946.28 1946.28 1946.28 1946.28 1946.28 1946.28 1936.27 1936.27 1936.27 1936.27 1936.27 1936.27 1936.27 1936.27 1909.89 1909.89 1909.89 1909.89 1909.89 1909.89 1909.89 1909.89 1909.89 1909.89 1909.89 1909.89 1909.89 1909.89 1909.89 1909.89 1909.89 1909.89 1909.89 1909.89 1909.89 1909.89 1909.89 1909.89 1909.89 1909.89 1909.89 1909.89 1875.32 1875.32 1875.32 1875.32 1875.32 1875.32 1875.32 1875.32 1875.32 1875.32 1875.32 1875.32 1875.32 1875.32 1875.32 1875.32 1875.32 1875.32 1875.32 1875.32 1875.32 1875.32 1875.32 1875.32 1875.32 1875.32 1875.32 1875.32 1875.32 1875.32 1875.32 1875.32 1875.32 1875.32 1875.32 1875.32 1875.32 1875.32 1875.32 1875.32 1875.32 1875.32 1875.32 1875.32 1875.32 1875.32 1875.32 1875.32 1875.32 1875.32 1875.32 1875.32 1875.32 1875.32 1875.32 1875.32 1875.32 1875.32 1875.32 1862.18 1862.18 1862.18 1862.18 1862.18 1862.18 1862.18 1862.18 1862.18 1862.18 1862.18 1862.18 1862.18 1862.18 1862.18 1862.18 1862.18 1862.18 1862.18 1862.18 1862.18 1862.18 1862.18 1862.18 1862.18 1862.18 1862.18 1862.18 1862.18 1862.18 1862.18 1862.18 1862.18 1862.18 1862.18 1862.18 1862.18 1862.18 1862.18 1862.18 1862.18 1862.18 1862.18 1862.18 1862.18 1862.18 1862.18 1862.18 1862.18 1862.18 1862.18 1862.18 1862.18 1862.18 1862.18 1862.18 1862.18 1862.18 1862.18 1862.18 1862.18 1862.18 1862.18 1862.18 1862.18 1862.18 1862.18 1862.18 1862.18 1862.18 1862.18 1862.18 1861.25 1861.25 1861.25 1834.11 1834.11 1834.11 1834.11 1834.11 1834.11 1829.04 1829.04 1825.3 1825.3 1825.3 1824.09 1824.09 1824.09 1824.09 1824.09 1824.09 1824.09 1824.09 1824.09 1817.93 1817.93 1817.93 1803.2 1803.2 1803.2 1803.2 1803.2 1803.2 1803.2 1803.2 1803.2 1803.2 1803.2 1803.2 1803.2 1803.2 1803.2 1803.2 1803.2 1790.91 1790.91 1790.91 1790.91 1790.91 1790.91 1790.91 1790.91 1790.91 1790.91 1790.91 1790.91 1789.55 1789.55 1789.55 1789.55 1789.55 1789.55 1789.55 1789.55 1789.55 1789.55 1789.55 1789.55 1784.8 1784.8 1784.8 1784.8 1784.8 1783.45 1783.45 1783.45 1783.45 1783.45 1783.45 1783.45 1783.45 1783.45 1783.45 1783.45 1783.45 1783.45 1783.45 1783.45 1783.45 1783.21 1783.21 1783.21 1781.86 1781.86 1781.86 1781.86 1781.86 1781.86 1781.86 1781.86 1781.86 1781.86 1781.86 1781.86 1781.86 1781.86 1781.86 1781.86 1781.86 1781.86 1781.86 1781.86 1781.86 1781.86 1781.86 1781.86 1781.86 1781.86 1781.86 1781.86 1781.86 1781.86 1781.86 1781.86 1781.86 1781.86 1781.86 1781.86 1781.86 1781.86 1781.86 1781.86 1781.86 1781.86 1781.86 1781.86 1781.86 1781.86 1781.86 1781.86 1781.86 1781.86 1781.86 1781.86 1781.86 1781.86 1781.86 1781.86 1781.86 1781.86 1781.86 1781.86 1781.86 1781.86 1781.86 1781.86 1781.86 1781.86 1781.86 1781.86 1781.86 1781.86 1781.86 1781.86 1781.86 1781.86 1781.86 1781.86 1781.86 1781.86 1781.86 1781.86 1781.86 1781.86 1781.86 1781.86 1781.86 1781.86 1781.86 1781.86 1781.86 1781.86 1781.86 1781.86 1781.86 1781.86 1781.86 1781.86 1781.86 1781.86 1781.86 1781.65 1781.65 1781.65 1781.65 1781.65 1781.65 1781.65 1781.65 1781.65 1781.65 1781.65 1781.65 1781.65 1781.65 1781.65 1781.65 1781.65 1781.65 1781.65 1781.65 1781.65 1781.65 1781.65 1781.65 1781.65 1781.65 1781.65 1781.65 1781.65 1781.65 1781.65 1781.65 1781.65 1781.65 1781.65 1781.65 1781.65 1781.65 1781.65 1781.65 1781.65 1781.65 1781.65 1781.65 1781.65 1781.65 1781.65 1781.65 1781.65 1781.65 1781.65 1781.65 1781.65 1781.65 1781.65 1781.65 1781.65 1781.65 1781.65 1781.65 1781.65 1781.65 1781.65 1781.65 1781.65 1781.65 1781.65 1781.65 1781.65 1781.65 1781.65 1781.65 1781.65 1781.65 1781.65 1781.65 1781.65 1781.65 1781.65 1781.65 1781.65 1781.65 1781.65 1781.65 1781.65 1781.65 1781.65 1781.65 1781.65 1781.65 1781.65 1781.65 1781.65 1781.65 1781.65 1781.65 1781.65 1781.65 1781.65 1781.65 1781.65 1781.65 1781.65 1781.65 1781.65 1781.65 1781.65 1781.65 1781.65 1781.65 1781.65 1781.65 1781.65 1781.65 1781.65 1781.65 1781.65 1781.65 1781.65 1781.65 1781.65 1781.65 1781.65 1781.65 1781.65 1781.65 1781.65 1781.65 1781.65 1781.65 1781.65 1781.65 1781.65 1781.65 1781.65 1781.65 1781.65 1781.65 1781.65 1781.65 1781.65 1781.65 1781.65 1781.65 1781.65 1781.65 1781.65 1781.65 1781.65 1781.65 1781.65 1781.65 1781.65 1781.65 1781.65 1781.65 1781.65 1781.65 1781.65 1781.65 1781.65 1781.65 1781.65 1781.65 1781.65 1781.65 1781.65 1781.65 1781.65 1781.65 1781.65 1781.65 1781.65 1781.65 1781.65 1781.65 1781.65 1781.65 1781.65 1781.65 1781.65 1781.65 1781.65 1781.65 1781.65 1781.65 1781.65 1781.65 1781.65 1781.65 1781.65 1781.65 1781.65 1781.65 1781.65 1781.65 1781.65 1781.65 1781.65 1781.65 1781.65 1781.65 1781.65 1781.65 1781.65 1781.65 1781.65 1781.65 1781.65 1781.65 1781.65 1781.65 1781.65 1781.65 1781.65 1781.65 1781.65 1781.65 1781.65 1781.65 1781.65 1781.65 1781.65 1781.65 1781.65 1781.65 1781.65 1781.65 1781.65 1781.65 1781.65 1781.65 1781.65 1781.65 1781.65 1781.65 1781.65 1781.65 1781.65 1781.65 1781.65 1781.65 1781.65 1781.65 1781.65 1781.65 1781.65 1781.65 1781.65 1781.65 1781.65 1781.65 1781.65 1781.65 1781.65 1781.65 1781.65 1781.65 1781.65 1781.65 1781.65 1781.65 1781.65 1781.65 1781.65 1781.65 1781.65 1781.65 1781.65 1781.65 1781.65 1781.65 1781.65 1781.65 1781.65 1781.65 1781.65 1781.65 1781.65 1781.65 1781.65 1781.65 1781.65 1781.65 1781.65 1781.65 1781.65 1781.65 1781.65 1781.65 1781.65 1781.65 1781.65 1781.65 1781.65 1781.65 1781.65 1781.65 1781.65 1781.65 1781.65 1781.65 1781.65 1781.65 1781.65 1781.65 1781.65 1781.65 1781.65 1781.65 1781.65 1781.65 1781.65 1781.65 1781.65 1781.65 1781.65 1781.65 1781.65 1781.65 1781.65 1781.65 1781.65 1781.65 1781.65 1781.65 1781.65 1781.65 1781.65 1781.65 1781.65 1781.65 1781.65 1781.65 1781.65 1781.65 1781.65 1781.65 1781.65 1781.65 1781.65 1781.65 1781.65 1781.65 1781.65 1781.65 1781.65 1781.65 1781.65 1781.65 1781.65 1781.65 1781.65 1781.65 1781.65 1781.65 1781.65 1781.65 1781.65 1781.65 1781.65 1781.65 1781.65 1781.65 1781.65 1781.65 1781.65 1781.65 1781.65 1781.65 1781.65 1781.65 1781.65 1781.65 1781.65 1781.65 1781.65 1781.65 1781.65 1781.65 1781.65 1781.65 1781.65 1781.65 1781.65 1781.65 1781.65 1781.65 1781.65 1781.65 1781.65 1781.65 1781.65 1781.65 1781.65 1781.65 1781.65 1781.65 1781.65 1781.65 1781.65 1781.65 1781.65 1781.65 1781.65 1781.65 1781.65 1781.65 1781.65 1781.65 1781.65 1781.65 1781.65 1781.65 1781.65 1781.65 1781.65 1781.65 1781.65 1781.65 1781.65 1781.65 1781.65 1781.65 1781.65 1781.65 1781.65 1781.65 1781.65 1781.65 1781.65 1781.65 1781.65 1781.65 1781.65 1781.65 1781.65 1781.65 1781.65 1781.65 1781.65 1781.65 1781.65 1781.65 1781.65 1781.65 1781.65 1781.65 1781.65 1781.65 1781.65 1781.65 1781.65 1781.65 1781.65 1781.65 1781.65 1781.65 1781.65 1781.65 1781.65 1781.65 1781.65 1781.65 1781.65 1781.65 1781.65 1781.65 1781.65 1781.65 1781.65 1781.65 1781.65 1781.65 1781.65 1781.65 1781.65 1781.65 1781.65 1781.65 1781.65 1781.65 1781.65 1781.65 1781.65 1781.65 1781.65 1781.65 1781.65 1781.65 1781.65 1781.65 1781.65 1781.65 1781.65 1781.65 1781.65 1781.65 1781.65 1781.65 1781.65 1781.65 1781.65 1781.65 1781.65 1781.65 1781.65 1781.65 1781.65 1781.65 1781.65 1781.65 1781.65 1781.65 1781.65 1781.65 1781.65 1781.65 1781.65 1781.65 1781.65 1781.65 1781.65 1781.65 1781.65 1781.65 1781.65 1781.65 1781.65 1781.65 1781.65 1781.65 1781.65 1781.65 1781.65 1781.65 1781.65 1781.65 1781.65 1781.65 1781.65 1781.65 1781.65 1781.65 1781.65 1781.65 1781.65 1781.65 1781.65 1781.65 1781.65 1781.65 1781.65 1781.65 1781.65 1781.65 1781.65 1781.65 1781.65 1781.65 1781.65 1781.65 1781.65 1781.65 1781.65 1781.65 1781.65 1781.65 1781.65 1781.65 1781.65 1781.65 1781.65 1781.65 1781.65 1781.65 1781.65 1781.65 1781.65 1781.65 1781.65 1781.65 1781.65 1781.65 1781.65 1781.65 1781.65 1781.65 1781.65 1781.65 1781.65 1781.65 1781.65 1781.65 1781.65 1781.65 1781.65 1781.65 1781.65 1781.65 1781.65 1781.65 1781.65 1781.65 1781.65 1781.65 1781.65 1781.65 1781.65 1781.65 1781.65 1781.65 1781.65 1781.65 1781.65 1781.65 1781.65 1781.65 1781.65 1781.65 1781.65 1781.65 1781.65 1781.65 1781.65 1781.65 1781.65 1781.65 1781.65 1781.65 1781.65 1781.65 1781.65 1781.65 1781.65 1781.65 1781.65 1781.65 1781.65 1781.65 1781.65 1781.65 1781.65 1781.65 1781.65 1781.65 1781.65 1781.65 1781.65 1781.65 1781.65 1781.65 1781.65 1781.65 1781.65 1781.65 1781.65 1781.65 1781.65 1781.65 1781.65 1781.65 1781.65 1781.65 1781.65 1781.65 1781.65 1781.65 1781.65 1781.65 1781.65 1781.65 1781.65 1781.65 1781.65 1781.65 1781.65 1781.65 1781.65 1781.65 1781.65 1781.65 1781.65 1781.65 1781.65 1781.65 1781.65 1781.65 1781.65 1781.65 1781.65 1781.65 1781.65 1781.65 1781.65 1781.65 1781.65 1781.65 1781.65 1781.65 1781.65 1781.65 1781.65 1781.65 1781.65 1781.65 1781.65 1781.65 1781.65 1781.65 1781.65 1781.65 1781.65 1781.65 1781.65 1781.65 1781.65 1781.65 1781.65 1781.65 1781.65 1781.65 1781.65 1781.65 1781.65 1781.65 1781.65 1781.65 1781.65 1781.65 1781.65 1781.65 1781.65 1781.65 1781.65 1781.65 1781.65 1781.65 1781.65 1781.65 1781.65 1781.65 1781.65 1781.65 1781.65 1781.65 1781.65 1781.65 1781.65 1781.65 1781.65 1781.65 1781.65 1781.65 1781.65 1781.65 1781.65 1781.65 1781.65 1781.65 1781.65 1781.65 1781.65 1781.65 1781.65 1781.65 1781.65 1781.65 1781.65 1781.65 1781.65 1781.65 1781.65 1781.65 1781.65 1781.65 1781.65 1781.65 1781.65 1781.65 1781.65 1781.65 1781.65 1781.65 1781.65 1781.65 1781.65 1781.65 1781.65 1781.65 1781.65 1781.65 1781.65 1781.65 1781.65 1781.65 1781.65 1781.65 1781.65 1781.65 1781.65 1781.65 1781.65 1781.65 1781.65 1781.65 1781.65 1781.65 1781.65 1781.65 1781.65 1781.65 1781.65 1781.65 1781.65 1781.65 1781.65 1781.65 1781.65 1781.65 1781.65 1781.65 1781.65 1781.65 1781.65 1781.65 1781.65 1781.65 1781.65 1781.65 1781.65 1781.65 1781.65 1781.65 1781.65 1781.65 1781.65 1781.65 1781.65 1781.65 1781.65 1781.65 1781.65 1781.65 1781.65 1781.65
23 72 54 50 29 77 76 40 58 53 36 64 82 16 38 43 14 93 59 71 66 63 70 62 80 67 75 26 33 35 81 9 12 56 95 92 96 99 91 15 41 94 60 31 101 27 21 4 73 2 74 22 55 1 69 6 13 100 44 86 5 85 37 57 87 97 18 88 45 17 84 61 32 79 30 90 48 47 83 46 19 28 51 25 39 42 98 8 10 3 24 68 34 65 78 20 11 49 7 52 89
1 69 27 101 53 28 26 12 80 68 29 24 54 55 25 4 39 67 23 56 75 41 22 74 72 73 21 40 58 13 94 95 97 87 2 57 15 43 42 14 44 38 86 16 61 85 91 100 98 37 92 59 93 99 96 6 89 52 18 83 60 5 84 17 45 8 46 47 36 49 64 63 90 32 10 62 11 19 48 82 7 88 31 70 30 20 66 71 65 35 34 78 81 9 51 33 79 3 77 76 50
